W=5;
H=5;

MAX_TIME=W*H;
MAX_TRACKS=15;
SEMAPHORE_SUPPLY=3;

TARGET=(3,5);

TRAINS=[(4,2,LEFT),(1,1,DOWN),(5,1,RIGHT)];
DECOYS=[];

INIT_POS=[
(1,1,STRAIGHT_TD),
(1,3,STRAIGHT_RL),
(2,3,STRAIGHT_RL),
(3,3,ROCK),
(3,5,STRAIGHT_RL),
(4,2,STRAIGHT_RL),
(5,1,STRAIGHT_RL),
(5,3,STRAIGHT_RL),
];
TUNNEL_PAIRS=[];

GATES=[
(2,3,1,false),
];
ACTIVATIONS=[
(5,3,1),
];

DSWITCHES=[];
STATIONS=[
  (1,3,1),
];
